Base=4;
C=75;
start_setup=[|0,0,0,0,0,13,0,4,0,0,0,0,0,0,0,16
             |0,0,0,0,0,0,0,0,0,0,0,0,0,0,0,11
             |0,4,0,0,0,0,0,0,0,0,0,0,0,0,0,0
             |0,0,0,0,0,0,0,0,0,0,3,0,0,0,0,0
             |0,0,0,4,0,0,0,0,0,0,0,0,11,5,15,0
             |0,0,0,0,0,0,0,0,0,0,0,0,0,0,0,0
             |0,0,0,0,0,0,9,0,0,0,0,11,0,0,7,0
             |15,0,0,0,0,0,0,0,0,0,0,0,0,0,1,0
             |0,2,0,0,0,0,0,0,13,0,0,0,0,0,0,0
             |0,0,0,0,0,0,0,0,0,0,11,0,0,0,0,7
             |0,0,0,0,0,0,0,0,0,1,0,0,14,0,0,0
             |0,0,0,0,0,0,0,0,5,0,9,0,0,0,0,0
             |4,0,0,0,0,7,0,0,0,0,0,9,16,0,0,0
             |0,0,0,0,0,0,0,0,4,0,0,0,12,11,0,0
             |0,11,10,0,0,3,0,1,0,15,0,0,0,0,0,0
             |0,0,0,0,0,0,0,9,0,7,0,5,4,3,0,0
|];
target_sum=[17,11,9,2,17,23,8,11,9,5,13,54,81,14,84,75,13,29,22,27,23,70,34,28,13,41,48,24,85,30,11,36,11,17,33,55,7,55,52,59,58,43,5,9,15,28,18,91,14,9,50,11,21,5,93,13,43,46,35,2,72,8,8,4,10,4,10,20,20,8,65,28,27,16,11];
tile2cage=[
14,14,15,15,15,15,15,15,38,38,38,38,27,27,27,27
,14,61,61,30,30,30,15,15,38,35,35,60,20,27,58,58
,59,61,61,61,30,30,7,19,38,63,35,20,20,28,58,58
,59,61,61,1,1,32,7,19,57,57,57,56,56,28,6,58
,59,72,72,72,72,32,32,32,54,57,57,65,53,28,6,58
,59,36,22,22,22,32,8,8,54,40,40,46,53,12,12,12
,13,36,36,22,22,62,9,64,64,40,40,46,46,66,37,12
,13,36,36,67,22,22,22,75,68,24,40,50,26,26,26,12
,13,13,13,33,3,69,69,55,68,24,24,50,26,26,26,70
,13,13,13,45,45,55,55,55,5,5,52,49,26,16,16,39
,13,13,13,45,55,55,11,55,55,10,10,51,51,16,2,39
,31,25,48,48,48,55,55,55,73,73,51,51,51,16,16,39
,31,43,43,48,48,71,71,71,73,47,41,41,74,16,16,39
,29,29,29,48,71,71,42,71,47,47,4,41,41,23,23,39
,29,29,29,48,48,71,42,42,42,18,18,41,41,23,23,39
,29,29,48,48,21,21,42,34,34,17,17,41,44,44,44,39];
